(set-info :status unsat) ; swine result
(set-logic ALL)
(declare-fun i1 () Int)
(declare-fun it1687 () Int)
(declare-fun it1688 () Int)
(declare-fun i2 () Int)
(declare-fun it1689 () Int)
(declare-fun i3 () Int)
(declare-fun it1690 () Int)
(declare-fun i4 () Int)
(declare-fun it1691 () Int)
(declare-fun i5 () Int)
(declare-fun it1692 () Int)
(declare-fun i6 () Int)
(declare-fun i7 () Int)
(declare-fun it1693 () Int)
(declare-fun it1694 () Int)
(declare-fun it1695 () Int)
(declare-fun it1696 () Int)
(declare-fun it1697 () Int)
(declare-fun it1698 () Int)
(declare-fun it1699 () Int)
(declare-fun it1700 () Int)
(declare-fun it1814 () Int)
(declare-fun it1815 () Int)
(declare-fun it1816 () Int)
(declare-fun it1817 () Int)
(declare-fun it1818 () Int)
(declare-fun it1819 () Int)
(declare-fun it1820 () Int)
(declare-fun it1822 () Int)
(declare-fun it1823 () Int)
(declare-fun it1824 () Int)
(declare-fun it1825 () Int)
(declare-fun it1826 () Int)
(declare-fun it1827 () Int)
(declare-fun it1828 () Int)
(declare-fun it1829 () Int)
(declare-fun it1830 () Int)
(declare-fun it1831 () Int)
(declare-fun it1832 () Int)
(declare-fun it1833 () Int)
(declare-fun it1834 () Int)
(declare-fun it1835 () Int)
(declare-fun it1836 () Int)
(declare-fun it1837 () Int)
(declare-fun it1838 () Int)
(declare-fun it1839 () Int)
(declare-fun it1840 () Int)
(declare-fun it1841 () Int)
(declare-fun it1842 () Int)
(declare-fun it1845 () Int)
(declare-fun it1846 () Int)
(declare-fun it1847 () Int)
(declare-fun it1848 () Int)
(declare-fun it1849 () Int)
(declare-fun it1850 () Int)
(declare-fun it1851 () Int)
(declare-fun it1852 () Int)
(declare-fun it1853 () Int)
(declare-fun it1854 () Int)
(declare-fun it1855 () Int)
(declare-fun it1856 () Int)
(declare-fun it1857 () Int)
(declare-fun it1858 () Int)
(declare-fun it316 () Int)
(assert (= (+ i1 (- 1)) 0))
(assert (= (+ it1687 (- 5)) 0))
(assert (= (+ (* i2 (- 1)) it1688 (- 4)) 0))
(assert (= (+ (* i3 (- 1)) it1689) 0))
(assert (= (+ (* i4 (- 1)) it1690) 0))
(assert (= (+ (* i5 (- 1)) it1691) 0))
(assert (= (+ (* i6 (- 1)) it1692) 0))
(assert (= (+ it1693 (* i7 (- 1))) 0))
(assert (and (= (+ it1687 (- 5)) 0) (> (+ it1690 (- 2)) 0)))
(assert (= (+ it1694 (- 18)) 0))
(assert (= (+ it1695 (* it1688 (- 1)) (- 12)) 0))
(assert (= (+ it1696 (* it1689 (- 1))) 0))
(assert (= (+ (* it1690 (- 1)) it1697) 0))
(assert (= (+ it1698 (* it1691 (- 1))) 0))
(assert (= it1699 0))
(assert (= (+ (* it1693 (- 1)) it1700) 0))
(assert (and (= (+ it1694 (- 18)) 0) (<= (+ it1699 (* it1697 (- 1)) 2) 0)))
(assert (= (+ it1814 (- 20)) 0))
(assert (= (+ (* it1695 (- 1)) it1815 (- 2)) 0))
(assert (= (+ (* it1696 (- 1)) it1816) 0))
(assert (= (+ it1817 (* it1697 (- 1))) 0))
(assert (= it1818 0))
(assert (= (+ (* it1699 (- 1)) it1819) 0))
(assert (= (+ it1820 (* it1700 (- 1))) 0))
(assert (and (<= (+ (* it1817 (- 1)) (* it1818 2) it1819 3) 0) (= (+ it1814 (- 20)) 0)))
(assert (= (+ it1822 (- 21)) 0))
(assert (= (+ (* it1815 (- 1)) it1823 (- 1)) 0))
(assert (= (+ it1824 (* it1816 (- 1))) 0))
(assert (= (+ (* it1817 (- 1)) it1825) 0))
(assert (= (+ (* it1818 (- 1)) it1826) 0))
(assert (= (+ it1827 (* it1819 (- 1))) 0))
(assert (= (+ (* it1820 (- 1)) it1828) 0))
(assert (and (= (+ it1822 (- 21)) 0) (= (+ it1827 (* it1825 (- 1)) (* it1826 2) 3) 0)))
(assert (= (+ it1829 (- 26)) 0))
(assert (= (+ it1830 (* it1823 (- 1)) (- 2)) 0))
(assert (= (+ (* it1824 (- 1)) it1831) 0))
(assert (= (+ (* it1825 (- 1)) it1832) 0))
(assert (= (+ it1833 (* it1826 (- 1))) 0))
(assert (= (+ (* it1827 (- 1)) it1834) 0))
(assert (= (+ it1835 (* it1826 (- 2)) (- 1)) 0))
(assert (= (+ it1829 (- 26)) 0))
(assert (= (+ it1836 (- 20)) 0))
(assert (= (+ (* it1830 (- 1)) it1837 (- 2)) 0))
(assert (= (+ (* it1831 (- 1)) it1838) 0))
(assert (= (+ it1839 (* it1832 (- 1))) 0))
(assert (= (+ it1840 (* it1835 (- 1))) 0))
(assert (= (+ (* it1834 (- 1)) it1841) 0))
(assert (= (+ (* it1835 (- 1)) it1842) 0))
(assert (and (= (+ it1836 (- 20)) 0) (> (+ (* it1839 (- 1)) (* it1840 2) it1841 3) 0)))
(assert (= (+ it1845 (- 18)) 0))
(assert (= (+ (* it1837 (- 1)) it1846 (- 4)) 0))
(assert (= (+ (* it1841 (- 1)) it1847 (- 1)) 0))
(assert (= (+ (* it1839 (- 1)) it1848) 0))
(assert (= (+ (* it1840 (- 1)) it1849) 0))
(assert (= (+ (* it1841 (- 1)) it1850 (- 1)) 0))
(assert (= (+ it1851 (* it1842 (- 1))) 0))
(assert (and (= (+ it1845 (- 18)) 0) (<= (+ (* it1848 (- 1)) it1850 2) 0)))
(assert (= (+ it1852 (- 20)) 0))
(assert (= (+ (* it1846 (- 1)) it1853 (- 2)) 0))
(assert (= (+ (* it1847 (- 1)) it1854) 0))
(assert (= (+ (* it1848 (- 1)) it1855) 0))
(assert (= it1856 0))
(assert (= (+ (* it1850 (- 1)) it1857) 0))
(assert (= (+ (* it1851 (- 1)) it1858) 0))
(assert (let ((a!1 (+ (+ 0 it1855)
              (* (exp 2 (+ it316 (- 1))) (+ 0 it1856) (+ 0 (- 2)))
              (* (exp 2 it316) (+ 0 (- 2)))
              (+ 0 (* it1857 (- 1)))
              (+ 0 1))))
  (and (> (+ it1855 (* it1856 (- 2)) (* it1857 (- 1)) (- 3)) 0)
       (>= a!1 (+ 0 0))
       (>= (+ it316 (- 1)) 0)
       (>= (+ (* it1852 (- 1)) 20) 0)
       (> a!1 (+ 0 0))
       (>= (+ it1855 (* it1856 (- 2)) (* it1857 (- 1)) (- 3)) 0)
       (>= (+ it1852 (- 20)) 0))))
(check-sat)
